
Log started (V11.0.0) Wed May 14 17:26:36 2008

Tried aggregator 1 time.
Reduced MIP has 150 rows, 5001 columns, and 10050 nonzeros.
Presolve time =    0.05 sec.
Clique table members: 100.
MIP emphasis: balance optimality and feasibility.
MIP search method: dynamic search.
Parallel mode: none, using 1 thread.
Root relaxation solution time =    0.16 sec.

        Nodes                                         Cuts/
   Node  Left     Objective  IInf  Best Integer     Best Node    ItCnt     Gap

*     0+    0                        11065.0000       50.9560      770   99.54%
*     0+    0                          100.0000       50.9560      770   49.04%
      0     0       51.7121    85      100.0000      Fract: 3      840   48.29%
*     0+    0                           99.0000       51.7121      840   47.77%
      0     0       59.4274    81       99.0000      Cuts: 41     1300   39.97%
*     0+    0                           97.0000       59.4274     1300   38.73%
      0     0       59.7375    78       97.0000       Cuts: 6     1344   38.41%
*     0+    0                           89.0000       59.7375     1344   32.88%
      0     0       60.1210    77       89.0000       Cuts: 4     1394   32.45%
*     0+    0                           86.0000       60.1210     1394   30.09%
      0     0       60.4124    78       86.0000      Cuts: 10     1470   29.75%
*     0+    0                           76.0000       60.4124     1470   20.51%
      0     0       61.5362    73       76.0000      Cuts: 10     1537   19.03%
*     0+    0                           75.0000       61.5362     1537   17.95%
      0     0       61.8302    79       75.0000       Cuts: 6     1635   17.56%
*     0+    0                           74.0000       61.8302     1635   16.45%
      0     0       62.8533    70       74.0000       Cuts: 6     1705   15.06%
*     0+    0                           73.0000       62.8533     1705   13.90%
      0     0       63.7453    65       73.0000       Cuts: 8     1781   12.68%
*     0+    0                           72.0000       63.7453     1781   11.46%
      0     0       63.8307    60       72.0000       Cuts: 6     1805   11.35%
*     0+    0                           71.0000       63.8307     1805   10.10%
      0     0       65.0498    58       71.0000       Cuts: 9     1876    8.38%
      0     0       65.4499    54       71.0000       Cuts: 7     1909    7.82%
      0     0       65.4727    67       71.0000    MIRcuts: 4     1926    7.78%
*     0+    0                           70.0000       65.4727     1926    6.47%
      0     0       65.6363    65       70.0000    MIRcuts: 3     1948    6.23%
      0     0       66.1292    59       70.0000    MIRcuts: 3     1981    5.53%
      0     0       66.2319    52       70.0000    MIRcuts: 2     2030    5.38%
      0     0       66.3000    56       70.0000    MIRcuts: 3     2046    5.29%
      0     0       66.4144    62       70.0000       Cuts: 4     2060    5.12%
      0     0       67.0124    40       70.0000    MIRcuts: 4     2087    4.27%
      0     0       67.0549    36       70.0000    MIRcuts: 3     2094    4.21%
      0     0       67.0692    49       70.0000       Cuts: 3     2102    4.19%
      0     0       67.0884    28       70.0000    MIRcuts: 2     2107    4.16%
*     0+    0                           69.0000       67.0884     2107    2.77%
      0     0       67.4130    28       69.0000    MIRcuts: 2     2126    2.30%
      0     0       67.7234    48       69.0000    MIRcuts: 6     2143    1.85%
      0     0       67.9536    50       69.0000    MIRcuts: 8     2158    1.52%
      0     0        cutoff             69.0000       Cuts: 9     2165    0.00%

Mixed integer rounding cuts applied:  43
Zero-half cuts applied:  1

Solution pool: 14 solutions saved.

MIP - Integer optimal solution:  Objective = 6.9000000000e+001
Solution time =    1.50 sec.  Iterations = 2165  Nodes = 0


Incumbent solution
Variable Name           Solution Value
Cmax                         69.000000
X_1_12                        1.000000
X_2_40                        1.000000
X_3_46                        1.000000
X_4_49                        1.000000
X_5_40                        1.000000
X_6_5                         1.000000
X_7_29                        1.000000
X_8_40                        1.000000
X_9_11                        1.000000
X_10_7                        1.000000
X_11_46                       1.000000
X_12_49                       1.000000
X_13_49                       1.000000
X_14_11                       1.000000
X_15_29                       1.000000
X_16_15                       1.000000
X_17_49                       1.000000
X_18_25                       1.000000
X_19_36                       1.000000
X_20_49                       1.000000
X_21_29                       1.000000
X_22_11                       1.000000
X_23_14                       1.000000
X_24_11                       1.000000
X_25_18                       1.000000
X_26_13                       1.000000
X_27_29                       1.000000
X_28_29                       1.000000
X_29_29                       1.000000
X_30_29                       1.000000
X_31_26                       1.000000
X_32_11                       1.000000
X_33_39                       1.000000
X_34_1                        1.000000
X_35_23                       1.000000
X_36_18                       1.000000
X_37_49                       1.000000
X_38_8                        1.000000
X_39_29                       1.000000
X_40_17                       1.000000
X_41_13                       1.000000
X_42_18                       1.000000
X_43_11                       1.000000
X_44_36                       1.000000
X_45_29                       1.000000
X_46_11                       1.000000
X_47_12                       1.000000
X_48_18                       1.000000
X_49_28                       1.000000
X_50_11                       1.000000
X_51_46                       1.000000
X_52_36                       1.000000
X_53_49                       1.000000
X_54_46                       1.000000
X_55_29                       1.000000
X_56_13                       1.000000
X_57_12                       1.000000
X_58_11                       1.000000
X_59_49                       1.000000
X_60_13                       1.000000
X_61_23                       1.000000
X_62_46                       1.000000
X_63_29                       1.000000
X_64_29                       1.000000
X_65_29                       1.000000
X_66_49                       1.000000
X_67_41                       1.000000
X_68_47                       1.000000
X_69_13                       1.000000
X_70_29                       1.000000
X_71_13                       1.000000
X_72_49                       1.000000
X_73_13                       1.000000
X_74_11                       1.000000
X_75_36                       1.000000
X_76_13                       1.000000
X_77_28                       1.000000
X_78_36                       1.000000
X_79_29                       1.000000
X_80_29                       1.000000
X_81_28                       1.000000
X_82_1                        1.000000
X_83_29                       1.000000
X_84_36                       1.000000
X_85_45                       1.000000
X_86_13                       1.000000
X_87_11                       1.000000
X_88_49                       1.000000
X_89_13                       1.000000
X_90_29                       1.000000
X_91_3                        1.000000
X_92_11                       1.000000
X_93_46                       1.000000
X_94_11                       1.000000
X_95_28                       1.000000
X_96_18                       1.000000
X_97_13                       1.000000
X_98_11                       1.000000
X_99_36                       1.000000
X_100_46                      1.000000
All other variables in the range 1-5001 are 0.
